objective value:                                10676
t_x_5                                               1 	(obj:36)
t_x_6                                               1 	(obj:28)
t_x_8                                               1 	(obj:11)
t_x_10                                              1 	(obj:27)
t_x_15                                              1 	(obj:13)
t_x_16                                              1 	(obj:19)
t_x_18                                              1 	(obj:13)
t_x_19                                              1 	(obj:41)
t_x_23                                              1 	(obj:5)
t_x_27                                              1 	(obj:2)
t_x_28                                              1 	(obj:28)
t_x_42                                              1 	(obj:21)
t_x_43                                              1 	(obj:34)
t_x_49                                              1 	(obj:14)
t_x_50                                              1 	(obj:9)
t_x_56                                              1 	(obj:1)
t_x_57                                              1 	(obj:8)
t_x_58                                              1 	(obj:34)
t_x_59                                              1 	(obj:49)
t_x_60                                              1 	(obj:25)
t_x_62                                              1 	(obj:30)
t_x_63                                              1 	(obj:14)
t_x_65                                              1 	(obj:1)
t_x_66                                              1 	(obj:36)
t_x_67                                              1 	(obj:5)
t_x_70                                              1 	(obj:16)
t_x_79                                              1 	(obj:12)
t_x_82                                              1 	(obj:18)
t_x_84                                              1 	(obj:19)
t_x_87                                              1 	(obj:4)
t_x_93                                              1 	(obj:11)
t_x_98                                              1 	(obj:36)
t_x_99                                              1 	(obj:46)
t_x_106                                             1 	(obj:13)
t_x_110                                             1 	(obj:34)
t_x_111                                             1 	(obj:3)
t_x_113                                             1 	(obj:5)
t_x_114                                             1 	(obj:11)
t_x_126                                             1 	(obj:7)
t_x_128                                             1 	(obj:8)
t_x_133                                             1 	(obj:56)
t_x_141                                             1 	(obj:9)
t_x_145                                             1 	(obj:4)
t_x_146                                             1 	(obj:16)
t_x_161                                             1 	(obj:20)
t_x_165                                             1 	(obj:11)
t_x_170                                             1 	(obj:12)
t_x_177                                             1 	(obj:23)
t_x_181                                             1 	(obj:14)
t_x_184                                             1 	(obj:2)
t_x_188                                             1 	(obj:3)
t_x_190                                             1 	(obj:41)
t_x_191                                             1 	(obj:12)
t_x_199                                             1 	(obj:36)
t_x_201                                             1 	(obj:47)
t_x_202                                             1 	(obj:6)
t_x_207                                             1 	(obj:10)
t_x_210                                             1 	(obj:10)
t_x_214                                             1 	(obj:12)
t_x_221                                             1 	(obj:25)
t_x_223                                             1 	(obj:29)
t_x_231                                             1 	(obj:12)
t_x_236                                             1 	(obj:37)
t_x_252                                             1 	(obj:2)
t_x_260                                             1 	(obj:5)
t_x_262                                             1 	(obj:26)
t_x_269                                             1 	(obj:12)
t_x_273                                             1 	(obj:4)
t_x_276                                             1 	(obj:15)
t_x_281                                             1 	(obj:2)
t_x_283                                             1 	(obj:2)
t_x_284                                             1 	(obj:1)
t_x_285                                             1 	(obj:22)
t_x_288                                             1 	(obj:13)
t_x_295                                             1 	(obj:14)
t_x_298                                             1 	(obj:10)
t_x_304                                             1 	(obj:24)
t_x_305                                             1 	(obj:31)
t_x_308                                             1 	(obj:8)
t_x_310                                             1 	(obj:36)
t_x_317                                             1 	(obj:0)
t_x_318                                             1 	(obj:1)
t_x_319                                             1 	(obj:15)
t_x_321                                             1 	(obj:11)
t_x_326                                             1 	(obj:16)
t_x_335                                             1 	(obj:14)
t_x_345                                             1 	(obj:27)
t_x_351                                             1 	(obj:17)
t_x_354                                             1 	(obj:74)
t_x_358                                             1 	(obj:5)
t_x_359                                             1 	(obj:40)
t_x_366                                             1 	(obj:40)
t_x_370                                             1 	(obj:9)
t_x_372                                             1 	(obj:87)
t_x_383                                             1 	(obj:7)
t_x_390                                             1 	(obj:15)
t_x_393                                             1 	(obj:14)
t_x_394                                             1 	(obj:4)
t_x_396                                             1 	(obj:13)
t_x_398                                             1 	(obj:0)
t_x_411                                             1 	(obj:8)
t_x_413                                             1 	(obj:24)
t_x_420                                             1 	(obj:36)
t_x_422                                             1 	(obj:5)
t_x_424                                             1 	(obj:5)
t_x_425                                             1 	(obj:7)
t_x_430                                             1 	(obj:12)
t_x_435                                             1 	(obj:8)
t_x_436                                             1 	(obj:20)
t_x_438                                             1 	(obj:24)
t_x_447                                             1 	(obj:1)
t_x_448                                             1 	(obj:31)
t_x_449                                             1 	(obj:54)
t_x_450                                             1 	(obj:34)
t_x_451                                             1 	(obj:1)
t_x_453                                             1 	(obj:12)
t_x_462                                             1 	(obj:22)
t_x_463                                             1 	(obj:25)
t_x_466                                             1 	(obj:5)
t_x_467                                             1 	(obj:13)
t_x_470                                             1 	(obj:23)
t_x_471                                             1 	(obj:24)
t_x_472                                             1 	(obj:29)
t_x_474                                             1 	(obj:4)
t_x_480                                             1 	(obj:47)
t_x_481                                             1 	(obj:7)
t_x_483                                             1 	(obj:12)
t_x_486                                             1 	(obj:21)
t_x_488                                             1 	(obj:11)
t_x_490                                             1 	(obj:58)
t_x_492                                             1 	(obj:3)
t_x_494                                             1 	(obj:23)
t_x_495                                             1 	(obj:8)
t_x_496                                             1 	(obj:47)
t_x_499                                             1 	(obj:31)
t_x_505                                             1 	(obj:7)
t_x_511                                             1 	(obj:3)
t_x_512                                             1 	(obj:23)
t_x_518                                             1 	(obj:12)
t_x_520                                             1 	(obj:15)
t_x_526                                             1 	(obj:13)
t_x_532                                             1 	(obj:1)
t_x_535                                             1 	(obj:29)
t_x_536                                             1 	(obj:29)
t_x_545                                             1 	(obj:65)
t_x_555                                             1 	(obj:14)
t_x_561                                             1 	(obj:3)
t_x_564                                             1 	(obj:30)
t_x_571                                             1 	(obj:8)
t_x_573                                             1 	(obj:12)
t_x_574                                             1 	(obj:30)
t_x_578                                             1 	(obj:31)
t_x_580                                             1 	(obj:51)
t_x_585                                             1 	(obj:5)
t_x_587                                             1 	(obj:11)
t_x_588                                             1 	(obj:20)
t_x_596                                             1 	(obj:25)
t_x_603                                             1 	(obj:1)
t_x_604                                             1 	(obj:8)
t_x_608                                             1 	(obj:16)
t_x_609                                             1 	(obj:17)
t_x_614                                             1 	(obj:4)
t_x_615                                             1 	(obj:3)
t_x_616                                             1 	(obj:2)
t_x_620                                             1 	(obj:10)
t_x_621                                             1 	(obj:31)
t_x_624                                             1 	(obj:4)
t_x_625                                             1 	(obj:19)
t_x_626                                             1 	(obj:11)
t_x_628                                             1 	(obj:16)
t_x_637                                             1 	(obj:24)
t_x_640                                             1 	(obj:42)
t_x_641                                             1 	(obj:35)
t_x_643                                             1 	(obj:40)
t_x_646                                             1 	(obj:2)
t_x_647                                             1 	(obj:7)
t_x_653                                             1 	(obj:24)
t_x_656                                             1 	(obj:31)
t_x_660                                             1 	(obj:16)
t_x_664                                             1 	(obj:3)
t_x_667                                             1 	(obj:5)
t_x_669                                             1 	(obj:19)
t_x_674                                             1 	(obj:26)
t_x_675                                             1 	(obj:19)
t_x_676                                             1 	(obj:26)
t_x_677                                             1 	(obj:14)
t_x_682                                             1 	(obj:5)
t_x_687                                             1 	(obj:8)
t_x_695                                             1 	(obj:10)
t_x_700                                             1 	(obj:12)
t_x_705                                             1 	(obj:24)
t_x_708                                             1 	(obj:3)
t_x_710                                             1 	(obj:6)
t_x_711                                             1 	(obj:13)
t_x_712                                             1 	(obj:20)
t_x_720                                             1 	(obj:17)
t_x_721                                             1 	(obj:16)
t_x_725                                             1 	(obj:0)
t_x_727                                             1 	(obj:10)
t_x_731                                             1 	(obj:21)
t_x_735                                             1 	(obj:9)
t_x_737                                             1 	(obj:26)
t_x_738                                             1 	(obj:44)
t_x_741                                             1 	(obj:27)
t_x_746                                             1 	(obj:3)
t_x_753                                             1 	(obj:11)
t_x_759                                             1 	(obj:11)
t_x_761                                             1 	(obj:2)
t_x_762                                             1 	(obj:4)
t_x_765                                             1 	(obj:9)
t_x_769                                             1 	(obj:19)
t_x_771                                             1 	(obj:7)
t_x_773                                             1 	(obj:20)
t_x_775                                             1 	(obj:24)
t_x_780                                             1 	(obj:15)
t_x_781                                             1 	(obj:3)
t_x_782                                             1 	(obj:36)
t_x_783                                             1 	(obj:3)
t_x_784                                             1 	(obj:3)
t_x_789                                             1 	(obj:26)
t_x_790                                             1 	(obj:17)
t_x_793                                             1 	(obj:0)
t_x_795                                             1 	(obj:3)
t_x_798                                             1 	(obj:38)
t_x_801                                             1 	(obj:11)
t_x_806                                             1 	(obj:8)
t_x_813                                             1 	(obj:13)
t_x_816                                             1 	(obj:13)
t_x_817                                             1 	(obj:6)
t_x_818                                             1 	(obj:50)
t_x_829                                             1 	(obj:11)
t_x_831                                             1 	(obj:6)
t_x_832                                             1 	(obj:10)
t_x_836                                             1 	(obj:32)
t_x_837                                             1 	(obj:28)
t_x_841                                             1 	(obj:59)
t_x_844                                             1 	(obj:15)
t_x_847                                             1 	(obj:10)
t_x_849                                             1 	(obj:40)
t_x_851                                             1 	(obj:16)
t_x_853                                             1 	(obj:24)
t_x_855                                             1 	(obj:17)
t_x_859                                             1 	(obj:33)
t_x_860                                             1 	(obj:14)
t_x_863                                             1 	(obj:39)
t_x_864                                             1 	(obj:23)
t_x_875                                             1 	(obj:1)
t_x_878                                             1 	(obj:1)
t_x_880                                             1 	(obj:82)
t_x_882                                             1 	(obj:12)
t_x_885                                             1 	(obj:34)
t_x_889                                             1 	(obj:42)
t_x_890                                             1 	(obj:10)
t_x_892                                             1 	(obj:17)
t_x_893                                             1 	(obj:9)
t_x_897                                             1 	(obj:21)
t_x_902                                             1 	(obj:56)
t_x_905                                             1 	(obj:15)
t_x_906                                             1 	(obj:26)
t_x_907                                             1 	(obj:10)
t_x_915                                             1 	(obj:18)
t_x_918                                             1 	(obj:11)
t_x_919                                             1 	(obj:26)
t_x_920                                             1 	(obj:5)
t_x_921                                             1 	(obj:1)
t_x_922                                             1 	(obj:28)
t_x_923                                             1 	(obj:18)
t_x_924                                             1 	(obj:22)
t_x_928                                             1 	(obj:12)
t_x_929                                             1 	(obj:22)
t_x_931                                             1 	(obj:17)
t_x_932                                             1 	(obj:19)
t_x_936                                             1 	(obj:67)
t_x_940                                             1 	(obj:22)
t_x_941                                             1 	(obj:34)
t_x_944                                             1 	(obj:12)
t_x_953                                             1 	(obj:27)
t_x_954                                             1 	(obj:21)
t_x_960                                             1 	(obj:22)
t_x_965                                             1 	(obj:5)
t_x_967                                             1 	(obj:22)
t_x_968                                             1 	(obj:37)
t_x_969                                             1 	(obj:7)
t_x_971                                             1 	(obj:10)
t_x_972                                             1 	(obj:5)
t_x_974                                             1 	(obj:12)
t_x_979                                             1 	(obj:13)
t_x_981                                             1 	(obj:76)
t_x_983                                             1 	(obj:5)
t_x_984                                             1 	(obj:21)
t_x_986                                             1 	(obj:9)
t_x_997                                             1 	(obj:2)
t_x_1002                                            1 	(obj:5)
t_x_1003                                            1 	(obj:46)
t_x_1004                                            1 	(obj:11)
t_x_1008                                            1 	(obj:8)
t_x_1010                                            1 	(obj:5)
t_x_1012                                            1 	(obj:3)
t_x_1013                                            1 	(obj:25)
t_x_1014                                            1 	(obj:20)
t_x_1017                                            1 	(obj:17)
t_x_1023                                            1 	(obj:24)
t_x_1025                                            1 	(obj:8)
t_x_1026                                            1 	(obj:31)
t_x_1027                                            1 	(obj:0)
t_x_1030                                            1 	(obj:19)
t_x_1031                                            1 	(obj:0)
t_x_1032                                            1 	(obj:19)
t_x_1033                                            1 	(obj:36)
t_x_1037                                            1 	(obj:19)
t_x_1039                                            1 	(obj:43)
t_x_1041                                            1 	(obj:0)
t_x_1049                                            1 	(obj:13)
t_x_1056                                            1 	(obj:22)
t_x_1068                                            1 	(obj:15)
t_x_1072                                            1 	(obj:7)
t_x_1077                                            1 	(obj:46)
t_x_1086                                            1 	(obj:42)
t_x_1089                                            1 	(obj:11)
t_x_1091                                            1 	(obj:9)
t_x_1095                                            1 	(obj:17)
t_x_1099                                            1 	(obj:0)
t_x_1108                                            1 	(obj:29)
t_x_1111                                            1 	(obj:11)
t_x_1112                                            1 	(obj:14)
t_x_1119                                            1 	(obj:18)
t_x_1125                                            1 	(obj:25)
t_x_1129                                            1 	(obj:5)
t_x_1136                                            1 	(obj:8)
t_x_1140                                            1 	(obj:7)
t_x_1142                                            1 	(obj:9)
t_x_1144                                            1 	(obj:22)
t_x_1145                                            1 	(obj:4)
t_x_1151                                            1 	(obj:55)
t_x_1154                                            1 	(obj:22)
t_x_1156                                            1 	(obj:10)
t_x_1160                                            1 	(obj:39)
t_x_1161                                            1 	(obj:10)
t_x_1163                                            1 	(obj:42)
t_x_1165                                            1 	(obj:8)
t_x_1167                                            1 	(obj:11)
t_x_1172                                            1 	(obj:0)
t_x_1173                                            1 	(obj:24)
t_x_1177                                            1 	(obj:8)
t_x_1179                                            1 	(obj:12)
t_x_1181                                            1 	(obj:8)
t_x_1184                                            1 	(obj:49)
t_x_1187                                            1 	(obj:10)
t_x_1189                                            1 	(obj:7)
t_x_1192                                            1 	(obj:14)
t_x_1201                                            1 	(obj:0)
t_x_1202                                            1 	(obj:29)
t_x_1203                                            1 	(obj:13)
t_x_1205                                            1 	(obj:2)
t_x_1206                                            1 	(obj:5)
t_x_1211                                            1 	(obj:78)
t_x_1212                                            1 	(obj:8)
t_x_1216                                            1 	(obj:11)
t_x_1218                                            1 	(obj:47)
t_x_1229                                            1 	(obj:12)
t_x_1231                                            1 	(obj:3)
t_x_1233                                            1 	(obj:16)
t_x_1239                                            1 	(obj:0)
t_x_1245                                            1 	(obj:12)
t_x_1253                                            1 	(obj:22)
t_x_1254                                            1 	(obj:0)
t_x_1257                                            1 	(obj:34)
t_x_1258                                            1 	(obj:11)
t_x_1259                                            1 	(obj:4)
t_x_1275                                            1 	(obj:28)
t_x_1281                                            1 	(obj:16)
t_x_1282                                            1 	(obj:4)
t_x_1292                                            1 	(obj:10)
t_x_1293                                            1 	(obj:18)
t_x_1297                                            1 	(obj:35)
t_x_1298                                            1 	(obj:28)
t_x_1300                                            1 	(obj:29)
t_x_1302                                            1 	(obj:9)
t_x_1307                                            1 	(obj:14)
t_x_1309                                            1 	(obj:28)
t_x_1312                                            1 	(obj:52)
t_x_1314                                            1 	(obj:10)
t_x_1316                                            1 	(obj:26)
t_x_1317                                            1 	(obj:12)
t_x_1319                                            1 	(obj:57)
t_x_1320                                            1 	(obj:7)
t_x_1321                                            1 	(obj:2)
t_x_1325                                            1 	(obj:4)
t_x_1336                                            1 	(obj:38)
t_x_1337                                            1 	(obj:9)
t_x_1338                                            1 	(obj:35)
t_x_1339                                            1 	(obj:13)
t_x_1343                                            1 	(obj:37)
t_x_1346                                            1 	(obj:22)
t_x_1350                                            1 	(obj:14)
t_x_1354                                            1 	(obj:14)
t_x_1357                                            1 	(obj:24)
t_x_1359                                            1 	(obj:10)
t_x_1363                                            1 	(obj:1)
t_x_1369                                            1 	(obj:5)
t_x_1371                                            1 	(obj:18)
t_x_1375                                            1 	(obj:22)
t_x_1376                                            1 	(obj:6)
t_x_1377                                            1 	(obj:9)
t_x_1380                                            1 	(obj:5)
t_x_1385                                            1 	(obj:11)
t_x_1386                                            1 	(obj:12)
t_x_1389                                            1 	(obj:7)
t_x_1394                                            1 	(obj:32)
t_x_1397                                            1 	(obj:1)
t_x_1402                                            1 	(obj:13)
t_x_1405                                            1 	(obj:3)
t_x_1410                                            1 	(obj:4)
t_x_1411                                            1 	(obj:6)
t_x_1415                                            1 	(obj:23)
t_x_1416                                            1 	(obj:54)
t_x_1418                                            1 	(obj:1)
t_x_1422                                            1 	(obj:51)
t_x_1423                                            1 	(obj:42)
t_x_1424                                            1 	(obj:15)
t_x_1425                                            1 	(obj:19)
t_x_1426                                            1 	(obj:24)
t_x_1429                                            1 	(obj:7)
t_x_1432                                            1 	(obj:3)
t_x_1433                                            1 	(obj:4)
t_x_1439                                            1 	(obj:2)
t_x_1441                                            1 	(obj:0)
t_x_1444                                            1 	(obj:0)
t_x_1447                                            1 	(obj:3)
t_x_1448                                            1 	(obj:21)
t_x_1449                                            1 	(obj:18)
t_x_1453                                            1 	(obj:22)
t_x_1459                                            1 	(obj:22)
t_x_1460                                            1 	(obj:47)
t_x_1461                                            1 	(obj:30)
t_x_1467                                            1 	(obj:0)
t_x_1476                                            1 	(obj:3)
t_x_1480                                            1 	(obj:31)
t_x_1482                                            1 	(obj:50)
t_x_1489                                            1 	(obj:26)
t_x_1490                                            1 	(obj:2)
t_x_1491                                            1 	(obj:23)
t_x_1494                                            1 	(obj:11)
t_x_1501                                            1 	(obj:15)
t_x_1506                                            1 	(obj:2)
t_x_1508                                            1 	(obj:32)
t_x_1510                                            1 	(obj:22)
t_x_1511                                            1 	(obj:21)
t_x_1513                                            1 	(obj:35)
t_x_1514                                            1 	(obj:43)
t_x_1517                                            1 	(obj:14)
t_x_1519                                            1 	(obj:5)
t_x_1521                                            1 	(obj:1)
t_x_1522                                            1 	(obj:2)
t_x_1523                                            1 	(obj:38)
t_x_1527                                            1 	(obj:15)
t_x_1531                                            1 	(obj:2)
t_x_1532                                            1 	(obj:13)
t_x_1535                                            1 	(obj:29)
t_x_1537                                            1 	(obj:15)
t_x_1539                                            1 	(obj:2)
t_x_1543                                            1 	(obj:14)
t_x_1545                                            1 	(obj:1)
t_x_1546                                            1 	(obj:17)
t_x_1551                                            1 	(obj:12)
t_x_1554                                            1 	(obj:18)
t_x_1555                                            1 	(obj:10)
t_x_1563                                            1 	(obj:8)
t_x_1564                                            1 	(obj:16)
t_x_1570                                            1 	(obj:11)
t_x_1571                                            1 	(obj:2)
t_x_1578                                            1 	(obj:0)
t_x_1583                                            1 	(obj:30)
t_x_1584                                            1 	(obj:24)
t_x_1586                                            1 	(obj:43)
t_x_1588                                            1 	(obj:15)
t_x_1589                                            1 	(obj:12)
t_x_1593                                            1 	(obj:23)
t_x_1597                                            1 	(obj:9)
t_x_1605                                            1 	(obj:15)
t_x_1608                                            1 	(obj:18)
t_x_1610                                            1 	(obj:13)
t_x_1615                                            1 	(obj:44)
t_x_1616                                            1 	(obj:31)
t_x_1619                                            1 	(obj:11)
t_x_1620                                            1 	(obj:5)
t_x_1621                                            1 	(obj:3)
t_x_1624                                            1 	(obj:14)
t_x_1631                                            1 	(obj:52)
t_x_1634                                            1 	(obj:34)
t_x_1650                                            1 	(obj:12)
t_x_1652                                            1 	(obj:2)
t_x_1657                                            1 	(obj:30)
t_x_1659                                            1 	(obj:10)
t_x_1662                                            1 	(obj:21)
t_x_1663                                            1 	(obj:33)
t_x_1665                                            1 	(obj:27)
t_x_1668                                            1 	(obj:17)
t_x_1676                                            1 	(obj:25)
t_x_1677                                            1 	(obj:16)
t_x_1680                                            1 	(obj:24)
t_x_1684                                            1 	(obj:20)
t_x_1689                                            1 	(obj:3)
t_x_1693                                            1 	(obj:10)
t_x_1699                                            1 	(obj:6)
t_x_1700                                            1 	(obj:2)
t_x_1703                                            1 	(obj:23)
t_x_1705                                            1 	(obj:9)
t_x_1707                                            1 	(obj:26)
t_x_1709                                            1 	(obj:30)
t_x_1711                                            1 	(obj:33)
t_x_1712                                            1 	(obj:35)
t_x_1715                                            1 	(obj:21)
t_x_1725                                            1 	(obj:16)
t_x_1727                                            1 	(obj:15)
t_x_1728                                            1 	(obj:16)
t_x_1737                                            1 	(obj:22)
t_x_1738                                            1 	(obj:4)
t_x_1741                                            1 	(obj:19)
t_x_1742                                            1 	(obj:22)
t_x_1744                                            1 	(obj:12)
t_x_1745                                            1 	(obj:14)
t_x_1751                                            1 	(obj:31)
t_x_1754                                            1 	(obj:57)
t_x_1763                                            1 	(obj:9)
t_x_1766                                            1 	(obj:44)
t_x_1768                                            1 	(obj:43)
t_x_1772                                            1 	(obj:19)
t_x_1789                                            1 	(obj:10)
t_x_1791                                            1 	(obj:10)
t_x_1793                                            1 	(obj:7)
t_x_1796                                            1 	(obj:26)
t_x_1801                                            1 	(obj:14)
t_x_1802                                            1 	(obj:0)
t_x_1805                                            1 	(obj:6)
t_x_1808                                            1 	(obj:0)
t_x_1811                                            1 	(obj:31)
t_x_1813                                            1 	(obj:5)
t_x_1815                                            1 	(obj:12)
t_x_1817                                            1 	(obj:14)
t_x_1826                                            1 	(obj:15)
t_x_1828                                            1 	(obj:12)
t_x_1829                                            1 	(obj:18)
t_x_1831                                            1 	(obj:9)
t_x_1832                                            1 	(obj:0)
t_x_1836                                            1 	(obj:70)
t_x_1840                                            1 	(obj:7)
t_x_1843                                            1 	(obj:43)
t_x_1846                                            1 	(obj:1)
t_x_1849                                            1 	(obj:20)
t_x_1851                                            1 	(obj:20)
t_x_1852                                            1 	(obj:50)
t_x_1853                                            1 	(obj:26)
t_x_1859                                            1 	(obj:2)
t_x_1860                                            1 	(obj:6)
t_x_1861                                            1 	(obj:0)
t_x_1868                                            1 	(obj:47)
t_x_1872                                            1 	(obj:20)
t_x_1879                                            1 	(obj:12)
t_x_1884                                            1 	(obj:20)
t_x_1888                                            1 	(obj:13)
t_x_1890                                            1 	(obj:26)
t_x_1894                                            1 	(obj:21)
t_x_1898                                            1 	(obj:15)
t_x_1901                                            1 	(obj:14)
t_x_1909                                            1 	(obj:33)
t_x_1910                                            1 	(obj:19)
t_x_1916                                            1 	(obj:9)
t_x_1919                                            1 	(obj:13)
t_x_1921                                            1 	(obj:4)
t_x_1923                                            1 	(obj:8)
t_x_1928                                            1 	(obj:5)
t_x_1930                                            1 	(obj:11)
t_x_1932                                            1 	(obj:19)
t_x_1935                                            1 	(obj:7)
t_x_1937                                            1 	(obj:14)
t_x_1940                                            1 	(obj:9)
t_x_1941                                            1 	(obj:27)
t_x_1943                                            1 	(obj:8)
t_x_1944                                            1 	(obj:1)
t_x_1946                                            1 	(obj:1)
t_x_1947                                            1 	(obj:10)
t_x_1950                                            1 	(obj:4)
t_x_1951                                            1 	(obj:12)
t_x_1960                                            1 	(obj:30)
t_x_1965                                            1 	(obj:60)
t_x_1970                                            1 	(obj:5)
t_x_1975                                            1 	(obj:15)
t_x_1990                                            1 	(obj:18)
t_x_1992                                            1 	(obj:32)
t_x_1995                                            1 	(obj:41)
t_x_1996                                            1 	(obj:2)
t_x_1997                                            1 	(obj:21)
t_x_1998                                            1 	(obj:0)
